instances/shortest_path/discrete_knapsack_uncertainty/nohadani_5_7.lp
\ Model nohadani_5_7
\ LP format - for model browsing. Use MPS format to capture full model detail.
\ Signature: 0xa1d49c5c4aa7c587
Minimize
  73.824115301167 y[0,1] + 31.40063693621516 y[0,2] + 73.824115301167 y[1,0]
   + 47.07440918375928 y[1,2] + 17 y[1,3] + 6.403124237432849 y[1,4]
   + 31.40063693621516 y[2,0] + 47.07440918375928 y[2,1]
   + 63.78871373526825 y[2,3] + 52.88667128870941 y[2,4] + 17 y[3,1]
   + 63.78871373526825 y[3,2] + 12.64911064067352 y[3,4]
   + 6.403124237432849 y[4,1] + 52.88667128870941 y[4,2]
   + 12.64911064067352 y[4,3] + x[0,1] + x[0,2] + x[1,0] + x[1,2] + x[1,3]
   + x[1,4] + x[2,0] + x[2,1] + x[2,3] + x[2,4] + x[3,1] + x[3,2] + x[3,4]
   + x[4,1] + x[4,2] + x[4,3] + 7.3824115301167 r[0,1]
   + 3.140063693621517 r[0,2] + 7.3824115301167 r[1,0]
   + 4.707440918375928 r[1,2] + 1.7 r[1,3] + 0.6403124237432849 r[1,4]
   + 3.140063693621517 r[2,0] + 4.707440918375928 r[2,1]
   + 6.378871373526825 r[2,3] + 5.288667128870941 r[2,4] + 1.7 r[3,1]
   + 6.378871373526825 r[3,2] + 1.264911064067352 r[3,4]
   + 0.6403124237432849 r[4,1] + 5.288667128870941 r[4,2]
   + 1.264911064067352 r[4,3]
Subject To
 flow_cons_inner_nodes[1]: y[0,1] - y[1,0] - y[1,2] - y[1,3] - y[1,4]
   + y[2,1] + y[3,1] + y[4,1] = 0
 flow_cons_inner_nodes[2]: y[0,2] + y[1,2] - y[2,0] - y[2,1] - y[2,3]
   - y[2,4] + y[3,2] + y[4,2] = 0
 flow_cons_inner_nodes[4]: y[1,4] + y[2,4] + y[3,4] - y[4,1] - y[4,2]
   - y[4,3] = 0
 flow_cons_source: y[0,1] + y[0,2] - y[1,0] - y[2,0] = 1
 flow_cons_target: y[1,3] + y[2,3] - y[3,1] - y[3,2] - y[3,4] + y[4,3] = 1
 primal_lower: 0.5657356838812881 x[0,1] + 1.480643297537034 x[0,2]
   + 5.67854485722377 x[1,0] + 3.131885076880576 x[1,2]
   + 4.977455832843857 x[1,3] + 2.656230137376125 x[1,4]
   + 5.363067075941182 x[2,0] + 2.260925091999013 x[2,1]
   + 4.206333216582495 x[2,3] + 5.105603206706752 x[2,4]
   + 5.829345720544467 x[3,1] + 0.5490417443615929 x[3,2]
   + 5.277637324764646 x[3,4] + 2.501686864714547 x[4,1]
   + 1.92397352581525 x[4,2] + 2.496523244688849 x[4,3] + 96 u[0,1]
   + 85 u[0,2] + 83 u[1,0] + 40 u[1,2] + 65 u[1,3] + 10 u[1,4] + 22 u[2,0]
   + 8 u[2,1] + 14 u[2,3] + 95 u[2,4] + 96 u[3,1] + 68 u[3,2] + 81 u[3,4]
   + 61 u[4,1] + 45 u[4,2] + 49 u[4,3] <= 96
 mccormick1[0,1]: - u[0,1] + r[0,1] <= 0
 mccormick1[0,2]: - u[0,2] + r[0,2] <= 0
 mccormick1[1,0]: - u[1,0] + r[1,0] <= 0
 mccormick1[1,2]: - u[1,2] + r[1,2] <= 0
 mccormick1[1,3]: - u[1,3] + r[1,3] <= 0
 mccormick1[1,4]: - u[1,4] + r[1,4] <= 0
 mccormick1[2,0]: - u[2,0] + r[2,0] <= 0
 mccormick1[2,1]: - u[2,1] + r[2,1] <= 0
 mccormick1[2,3]: - u[2,3] + r[2,3] <= 0
 mccormick1[2,4]: - u[2,4] + r[2,4] <= 0
 mccormick1[3,1]: - u[3,1] + r[3,1] <= 0
 mccormick1[3,2]: - u[3,2] + r[3,2] <= 0
 mccormick1[3,4]: - u[3,4] + r[3,4] <= 0
 mccormick1[4,1]: - u[4,1] + r[4,1] <= 0
 mccormick1[4,2]: - u[4,2] + r[4,2] <= 0
 mccormick1[4,3]: - u[4,3] + r[4,3] <= 0
 mccormick2[0,1]: - y[0,1] + r[0,1] <= 0
 mccormick2[0,2]: - y[0,2] + r[0,2] <= 0
 mccormick2[1,0]: - y[1,0] + r[1,0] <= 0
 mccormick2[1,2]: - y[1,2] + r[1,2] <= 0
 mccormick2[1,3]: - y[1,3] + r[1,3] <= 0
 mccormick2[1,4]: - y[1,4] + r[1,4] <= 0
 mccormick2[2,0]: - y[2,0] + r[2,0] <= 0
 mccormick2[2,1]: - y[2,1] + r[2,1] <= 0
 mccormick2[2,3]: - y[2,3] + r[2,3] <= 0
 mccormick2[2,4]: - y[2,4] + r[2,4] <= 0
 mccormick2[3,1]: - y[3,1] + r[3,1] <= 0
 mccormick2[3,2]: - y[3,2] + r[3,2] <= 0
 mccormick2[3,4]: - y[3,4] + r[3,4] <= 0
 mccormick2[4,1]: - y[4,1] + r[4,1] <= 0
 mccormick2[4,2]: - y[4,2] + r[4,2] <= 0
 mccormick2[4,3]: - y[4,3] + r[4,3] <= 0
 mccormick3[0,1]: - y[0,1] - u[0,1] + r[0,1] >= -1
 mccormick3[0,2]: - y[0,2] - u[0,2] + r[0,2] >= -1
 mccormick3[1,0]: - y[1,0] - u[1,0] + r[1,0] >= -1
 mccormick3[1,2]: - y[1,2] - u[1,2] + r[1,2] >= -1
 mccormick3[1,3]: - y[1,3] - u[1,3] + r[1,3] >= -1
 mccormick3[1,4]: - y[1,4] - u[1,4] + r[1,4] >= -1
 mccormick3[2,0]: - y[2,0] - u[2,0] + r[2,0] >= -1
 mccormick3[2,1]: - y[2,1] - u[2,1] + r[2,1] >= -1
 mccormick3[2,3]: - y[2,3] - u[2,3] + r[2,3] >= -1
 mccormick3[2,4]: - y[2,4] - u[2,4] + r[2,4] >= -1
 mccormick3[3,1]: - y[3,1] - u[3,1] + r[3,1] >= -1
 mccormick3[3,2]: - y[3,2] - u[3,2] + r[3,2] >= -1
 mccormick3[3,4]: - y[3,4] - u[3,4] + r[3,4] >= -1
 mccormick3[4,1]: - y[4,1] - u[4,1] + r[4,1] >= -1
 mccormick3[4,2]: - y[4,2] - u[4,2] + r[4,2] >= -1
 mccormick3[4,3]: - y[4,3] - u[4,3] + r[4,3] >= -1
Bounds
Binaries
 y[0,1] y[0,2] y[1,0] y[1,2] y[1,3] y[1,4] y[2,0] y[2,1] y[2,3] y[2,4]
 y[3,1] y[3,2] y[3,4] y[4,1] y[4,2] y[4,3] x[0,1] x[0,2] x[1,0] x[1,2]
 x[1,3] x[1,4] x[2,0] x[2,1] x[2,3] x[2,4] x[3,1] x[3,2] x[3,4] x[4,1]
 x[4,2] x[4,3] u[0,1] u[0,2] u[1,0] u[1,2] u[1,3] u[1,4] u[2,0] u[2,1]
 u[2,3] u[2,4] u[3,1] u[3,2] u[3,4] u[4,1] u[4,2] u[4,3] r[0,1] r[0,2]
 r[1,0] r[1,2] r[1,3] r[1,4] r[2,0] r[2,1] r[2,3] r[2,4] r[3,1] r[3,2]
 r[3,4] r[4,1] r[4,2] r[4,3]
End
